\* Source Pyomo model name=C2 *\

min 
x1:
+3.858917959404183e-07 x2

s.t.

c_e_x3_:
+1 x4
+1 x5
-1 x6
-1 x7
= -1150

c_e_x8_:
+1 x9
+1 x10
-1 x11
+0.95 x7
-1 x12
= 0

c_e_x13_:
+1 x14
+1 x15
-1 x16
+0.95 x12
-1 x17
= 0

c_e_x18_:
+1 x19
-1 x5
+1 x20
+0.5 x6
-1 x21
-1 x22
= -1700

c_e_x23_:
+1 x24
-1 x10
+1 x25
+0.5 x11
-1 x26
+0.95 x22
-1 x27
= 0

c_e_x28_:
+1 x29
-1 x15
+1 x30
+0.5 x16
-1 x31
+0.95 x27
-1 x32
= 0

c_e_x33_:
+1 x34
-1 x20
+0.5 x21
-1 x35
= -2400

c_e_x36_:
+1 x37
-1 x25
+0.5 x26
+0.9 x35
-1 x38
= 0

c_e_x39_:
+1 x40
-1 x30
+0.5 x31
+0.9 x38
-1 x41
= 0

c_e_x42_:
+1 x7
-1 x43
+1 x44
+0.5 x45
= 1250

c_e_x46_:
+1 x12
-1 x47
+1 x48
+0.5 x49
= 1800

c_e_x50_:
+1 x17
-1 x51
+1 x52
+0.5 x53
= 2500

c_e_x54_:
+1 x22
-1 x55
+1 x56
+0.5 x57
= 1600

c_e_x58_:
+1 x27
-1 x59
+1 x60
+0.5 x61
= 2250

c_e_x62_:
+1 x32
-1 x63
+1 x64
+0.5 x65
= 3000

c_e_x66_:
+1 x35
-1 x67
+1 x68
+0.5 x69
= 1200

c_e_x70_:
+1 x38
-1 x71
+1 x72
+0.5 x73
= 750

c_e_x74_:
+1 x41
-1 x75
+1 x76
+0.5 x77
= 0

c_u_x78_:
+1 x4
<= 600

c_u_x79_:
+1 x9
<= 600

c_u_x80_:
+1 x14
<= 600

c_u_x81_:
+1 x19
<= 900

c_u_x82_:
+1 x24
<= 900

c_u_x83_:
+1 x29
<= 900

c_u_x84_:
+1 x34
<= 500

c_u_x85_:
+1 x37
<= 500

c_u_x86_:
+1 x40
<= 500

c_u_x87_:
+1 x20
<= 300

c_u_x88_:
+1 x25
<= 300

c_u_x89_:
+1 x30
<= 300

c_u_x90_:
+1 x5
<= 340.0

c_u_x91_:
+1 x10
-0.2 x22
<= 0

c_u_x92_:
+1 x15
-0.2 x27
<= 0

c_u_x93_:
+1 x44
+1 x56
+1 x68
<= 175

c_u_x94_:
+1 x48
+1 x60
+1 x72
<= 175

c_u_x95_:
+1 x52
+1 x64
+1 x76
<= 175

c_u_x96_:
+1 x45
+1 x57
+1 x69
<= 80

c_u_x97_:
+1 x49
+1 x61
+1 x73
<= 80

c_u_x98_:
+1 x53
+1 x65
+1 x77
<= 80

c_e_x99_:
+1 x2
-650 x4
-650 x9
-650 x14
-550 x19
-550 x24
-550 x29
-450 x34
-450 x37
-450 x40
-300 x5
-300 x10
-300 x15
-400 x20
-400 x25
-400 x30
-500 x43
-500 x47
-500 x51
-500 x55
-500 x59
-500 x63
-200 x67
-200 x71
-200 x75
-1200 x44
-1200 x48
-1200 x52
-1100 x56
-1100 x60
-1100 x64
-1000 x68
-1000 x72
-1000 x76
-550 x45
-550 x49
-550 x53
-400 x57
-400 x61
-400 x65
-350 x69
-350 x73
-350 x77
= 0

c_e_x100_:
-1 x43
-1 x47
-1 x51
-1 x55
-1 x59
-1 x63
-1 x67
-1 x71
-1 x75
+1 x101
= 0

bounds
   0.0 <= x2 <= +inf
   0.0 <= x4 <= +inf
   0.0 <= x9 <= +inf
   0.0 <= x14 <= +inf
   0.0 <= x19 <= +inf
   0.0 <= x24 <= +inf
   0.0 <= x29 <= +inf
   0.0 <= x34 <= +inf
   0.0 <= x37 <= +inf
   0.0 <= x40 <= +inf
   0.0 <= x5 <= +inf
   0.0 <= x10 <= +inf
   0.0 <= x15 <= +inf
   0.0 <= x20 <= +inf
   0.0 <= x25 <= +inf
   0.0 <= x30 <= +inf
   0.0 <= x6 <= +inf
   0.0 <= x11 <= +inf
   0.0 <= x16 <= +inf
   0.0 <= x21 <= +inf
   0.0 <= x26 <= +inf
   0.0 <= x31 <= +inf
   0.0 <= x7 <= +inf
   0.0 <= x12 <= +inf
   0.0 <= x17 <= +inf
   0.0 <= x22 <= +inf
   0.0 <= x27 <= +inf
   0.0 <= x32 <= +inf
   0.0 <= x35 <= +inf
   0.0 <= x38 <= +inf
   0.0 <= x41 <= +inf
   0.0 <= x43 <= +inf
   0.0 <= x47 <= +inf
   0.0 <= x51 <= +inf
   0.0 <= x55 <= +inf
   0.0 <= x59 <= +inf
   0.0 <= x63 <= +inf
   0.0 <= x67 <= +inf
   0.0 <= x71 <= +inf
   0.0 <= x75 <= +inf
   0.0 <= x44 <= +inf
   0.0 <= x48 <= +inf
   0.0 <= x52 <= +inf
   0.0 <= x56 <= +inf
   0.0 <= x60 <= +inf
   0.0 <= x64 <= +inf
   0.0 <= x68 <= +inf
   0.0 <= x72 <= +inf
   0.0 <= x76 <= +inf
   0.0 <= x45 <= +inf
   0.0 <= x49 <= +inf
   0.0 <= x53 <= +inf
   0.0 <= x57 <= +inf
   0.0 <= x61 <= +inf
   0.0 <= x65 <= +inf
   0.0 <= x69 <= +inf
   0.0 <= x73 <= +inf
   0.0 <= x77 <= +inf
   0.0 <= x101 <= +inf
end
